1246
4002
1840
3628
3157
1714
3803
913
4088
3272
674
3149
1172
236
347
4252
2064
323
2108
2486
712
4023
3649
1693
443
1748
1581
1147
4036
814
854
2393
3462
3754
3632
1910
439
3974
1677
2724
248
643
2873
2165
164
2603
2582
423
1434
337
2005
2300
3432
1861
4180
192
449
974
3658
1430
1647
3187
3608
3003
3368
2495
1713
2582
1552
3283
2911
236
3290
3286
2643
270
2251
2815
1472
2394
1560
2271
2435
1730
514
3451
2122
3067
845
3610
4246
3778
3764
3972
3225
885
1149
1677
2091
4192
